
Gurobi 11.0.2 (win64) logging started Tue Jun  4 13:52:27 2024

Set parameter LogFile to value "mf_gurobi.log"
Set parameter DisplayInterval to value 1
Set parameter FeasibilityTol to value 1e-09
Set parameter OptimalityTol to value 1e-09
Gurobi Optimizer version 11.0.2 build v11.0.2rc0 (win64 - Windows 11.0 (22631.2))

CPU model: 11th Gen Intel(R) Core(TM) i5-11300H @ 3.10GHz, instruction set [SSE2|AVX|AVX2|AVX512]
Thread count: 4 physical cores, 8 logical processors, using up to 8 threads

Optimize a model with 8 rows, 17 columns and 28 nonzeros
Model fingerprint: 0xc8812966
Coefficient statistics:
  Matrix range     [1e+00, 1e+00]
  Objective range  [1e+00, 1e+00]
  Bounds range     [1e+00, 2e+01]
  RHS range        [0e+00, 0e+00]
Presolve removed 2 rows and 1 columns
Presolve time: 0.00s
Presolved: 6 rows, 16 columns, 27 nonzeros

Iteration    Objective       Primal Inf.    Dual Inf.      Time
       0    2.2000000e+01   2.499000e+01   0.000000e+00      0s
       7    2.2000000e+01   0.000000e+00   0.000000e+00      0s

Solved in 7 iterations and 0.01 seconds (0.00 work units)
Optimal objective  2.200000000e+01

User-callback calls 38, time in user-callback 0.00 sec

Gurobi 11.0.2 (win64) logging started Tue Jun  4 14:36:50 2024

Set parameter LogFile to value "mf_gurobi.log"
Set parameter DisplayInterval to value 1
Set parameter FeasibilityTol to value 1e-09
Set parameter OptimalityTol to value 1e-09
Gurobi Optimizer version 11.0.2 build v11.0.2rc0 (win64 - Windows 11.0 (22631.2))

CPU model: 11th Gen Intel(R) Core(TM) i5-11300H @ 3.10GHz, instruction set [SSE2|AVX|AVX2|AVX512]
Thread count: 4 physical cores, 8 logical processors, using up to 8 threads

Optimize a model with 8 rows, 17 columns and 28 nonzeros
Model fingerprint: 0xc8812966
Coefficient statistics:
  Matrix range     [1e+00, 1e+00]
  Objective range  [1e+00, 1e+00]
  Bounds range     [1e+00, 2e+01]
  RHS range        [0e+00, 0e+00]
Presolve removed 2 rows and 1 columns
Presolve time: 0.00s
Presolved: 6 rows, 16 columns, 27 nonzeros

Iteration    Objective       Primal Inf.    Dual Inf.      Time
       0    2.2000000e+01   2.499000e+01   0.000000e+00      0s
       7    2.2000000e+01   0.000000e+00   0.000000e+00      0s

Solved in 7 iterations and 0.02 seconds (0.00 work units)
Optimal objective  2.200000000e+01

User-callback calls 38, time in user-callback 0.02 sec

Gurobi 11.0.2 (win64) logging started Tue Jun  4 14:45:57 2024

Set parameter LogFile to value "mf_gurobi.log"
Set parameter DisplayInterval to value 1
Set parameter FeasibilityTol to value 1e-09
Set parameter OptimalityTol to value 1e-09
Gurobi Optimizer version 11.0.2 build v11.0.2rc0 (win64 - Windows 11.0 (22631.2))

CPU model: 11th Gen Intel(R) Core(TM) i5-11300H @ 3.10GHz, instruction set [SSE2|AVX|AVX2|AVX512]
Thread count: 4 physical cores, 8 logical processors, using up to 8 threads

Optimize a model with 8 rows, 17 columns and 28 nonzeros
Model fingerprint: 0xc8812966
Coefficient statistics:
  Matrix range     [1e+00, 1e+00]
  Objective range  [1e+00, 1e+00]
  Bounds range     [1e+00, 2e+01]
  RHS range        [0e+00, 0e+00]
Presolve removed 2 rows and 1 columns
Presolve time: 0.00s
Presolved: 6 rows, 16 columns, 27 nonzeros

Iteration    Objective       Primal Inf.    Dual Inf.      Time
       0    2.2000000e+01   2.499000e+01   0.000000e+00      0s
       7    2.2000000e+01   0.000000e+00   0.000000e+00      0s

Solved in 7 iterations and 0.01 seconds (0.00 work units)
Optimal objective  2.200000000e+01

User-callback calls 38, time in user-callback 0.00 sec

Gurobi 11.0.2 (win64) logging started Tue Jun  4 14:49:20 2024

Set parameter LogFile to value "mf_gurobi.log"
Set parameter DisplayInterval to value 1
Set parameter FeasibilityTol to value 1e-09
Set parameter OptimalityTol to value 1e-09
Gurobi Optimizer version 11.0.2 build v11.0.2rc0 (win64 - Windows 11.0 (22631.2))

CPU model: 11th Gen Intel(R) Core(TM) i5-11300H @ 3.10GHz, instruction set [SSE2|AVX|AVX2|AVX512]
Thread count: 4 physical cores, 8 logical processors, using up to 8 threads

Optimize a model with 8 rows, 17 columns and 28 nonzeros
Model fingerprint: 0xc8812966
Coefficient statistics:
  Matrix range     [1e+00, 1e+00]
  Objective range  [1e+00, 1e+00]
  Bounds range     [1e+00, 2e+01]
  RHS range        [0e+00, 0e+00]
Presolve removed 2 rows and 1 columns
Presolve time: 0.00s
Presolved: 6 rows, 16 columns, 27 nonzeros

Iteration    Objective       Primal Inf.    Dual Inf.      Time
       0    2.2000000e+01   2.499000e+01   0.000000e+00      0s
       7    2.2000000e+01   0.000000e+00   0.000000e+00      0s

Solved in 7 iterations and 0.01 seconds (0.00 work units)
Optimal objective  2.200000000e+01

User-callback calls 38, time in user-callback 0.00 sec

Gurobi 11.0.2 (win64) logging started Tue Jun  4 14:55:36 2024

Set parameter LogFile to value "mf_gurobi.log"
Set parameter DisplayInterval to value 1
Set parameter FeasibilityTol to value 1e-09
Set parameter OptimalityTol to value 1e-09
Gurobi Optimizer version 11.0.2 build v11.0.2rc0 (win64 - Windows 11.0 (22631.2))

CPU model: 11th Gen Intel(R) Core(TM) i5-11300H @ 3.10GHz, instruction set [SSE2|AVX|AVX2|AVX512]
Thread count: 4 physical cores, 8 logical processors, using up to 8 threads

Optimize a model with 8 rows, 17 columns and 28 nonzeros
Model fingerprint: 0xc8812966
Coefficient statistics:
  Matrix range     [1e+00, 1e+00]
  Objective range  [1e+00, 1e+00]
  Bounds range     [1e+00, 2e+01]
  RHS range        [0e+00, 0e+00]
Presolve removed 2 rows and 1 columns
Presolve time: 0.00s
Presolved: 6 rows, 16 columns, 27 nonzeros

Iteration    Objective       Primal Inf.    Dual Inf.      Time
       0    2.2000000e+01   2.499000e+01   0.000000e+00      0s
       7    2.2000000e+01   0.000000e+00   0.000000e+00      0s

Solved in 7 iterations and 0.01 seconds (0.00 work units)
Optimal objective  2.200000000e+01

User-callback calls 38, time in user-callback 0.01 sec
